(set-logic HORN)
(set-info :source |
    Benchmark: C_VC
    Output by Princess (http://www.philipp.ruemmer.org/princess.shtml)
|)
(set-info :status sat)
;===============================================================================
; Encoding of Heap sorts and operations
;-------------------------------------------------------------------------------
(define-sort Addr() Int)
(declare-datatypes ((HeapObject 0) (node 0) (sl_item 0) (sl 0))
                   (((O_Int (getInt Int)) (O_UInt (getUInt Int)) (O_Addr (getAddr Addr)) (O_node (getnode node)) (O_sl_item (getsl_item sl_item)) (O_sl (getsl sl)) (defObj))
                   ((node (h Int) (n Addr)))
                   ((sl_item (n1 Addr) (n2 Addr)))
                   ((sl (head Addr) (tail Addr)))))
(declare-datatypes ((AllocResHeap 0) (Heap 0))
                   (((AllocResHeap   (newHeap Heap) (newAddr Addr)))
                    ((HeapCtor (HeapSize Int)
                               (HeapContents (Array Addr HeapObject))))))
(define-fun nullAddr  () Addr 0)
(define-fun valid     ((h Heap) (p Addr)) Bool
  (and (>= (HeapSize h) p) (> p 0)))
(define-fun emptyHeap () Heap (
  HeapCtor 0 (( as const (Array Addr HeapObject)) defObj)))
(define-fun read ((h Heap) (p Addr)) HeapObject
  (ite (valid h p)
       (select (HeapContents h) p)
       defObj))
(define-fun write ((h Heap) (p Addr) (o HeapObject)) Heap
  (ite (valid h p)
       (HeapCtor (HeapSize h) (store (HeapContents h) p o))
       h))
(define-fun alloc   ((h Heap) (o HeapObject)) AllocResHeap
  (AllocResHeap (HeapCtor (+ 1 (HeapSize h))
                    (store (HeapContents h) (+ 1 (HeapSize h)) o))
          (+ 1 (HeapSize h))))

;===============================================================================
(declare-fun inv_main12 (Heap Addr Addr Addr) Bool)
(declare-fun inv_main13 (Heap Addr Addr Addr) Bool)
(declare-fun inv_main18 (Heap Addr Addr Addr) Bool)
(declare-fun inv_main2 (Heap) Bool)
(declare-fun inv_main21 (Heap Addr Addr Addr Int) Bool)
(declare-fun inv_main24 (Heap Addr Addr Addr) Bool)
(declare-fun inv_main26 (Heap Addr Addr Addr) Bool)
(declare-fun inv_main30 (Heap Addr Addr Addr) Bool)
(declare-fun inv_main31 (Heap Addr Addr Addr) Bool)
(declare-fun inv_main32 (Heap Addr Addr Addr) Bool)
(declare-fun inv_main42 (Heap Addr Addr Addr Addr Addr) Bool)
(declare-fun inv_main43 (Heap Addr Addr Addr Addr) Bool)
(declare-fun inv_main44 (Heap Addr Addr Addr Addr Addr) Bool)
(declare-fun inv_main45 (Heap Addr Addr Addr Addr) Bool)
(declare-fun inv_main46 (Heap Addr Addr Addr Addr Addr) Bool)
(declare-fun inv_main47 (Heap Addr Addr Addr Addr Addr) Bool)
(declare-fun inv_main49 (Heap Addr Addr Addr Addr Addr) Bool)
(declare-fun inv_main50 (Heap Addr Addr Addr Addr) Bool)
(declare-fun inv_main58 (Heap Addr Addr Addr Addr Addr Addr Addr Addr) Bool)
(declare-fun inv_main59 (Heap Addr Addr Addr Addr Addr Addr Addr Addr) Bool)
(declare-fun inv_main62 (Heap Addr Addr Addr Addr Addr Addr Addr Addr) Bool)
(declare-fun inv_main63 (Heap Addr Addr Addr Addr Addr Addr Addr Addr Addr) Bool)
(declare-fun inv_main68 (Heap Addr Addr Addr Addr Addr Addr Addr Addr) Bool)
(declare-fun inv_main7 (Heap Addr Int) Bool)
(declare-fun inv_main70 (Heap Addr Addr Addr Addr Addr Addr Addr Addr) Bool)
(declare-fun inv_main71 (Heap Addr Addr Addr Addr Addr Addr Addr Addr Addr) Bool)
(declare-fun inv_main76 (Heap Addr Addr Addr Addr Addr Addr Addr Addr) Bool)
(declare-fun inv_main78 (Heap Addr Addr Addr Addr Addr Addr Addr Addr) Bool)
(declare-fun inv_main79 (Heap Addr Addr Addr Addr Addr Addr Addr Addr Addr) Bool)
(declare-fun inv_main81 (Heap Addr Addr Addr Addr Addr Addr Addr Addr) Bool)
(declare-fun inv_main84 (Heap Addr Addr Addr Addr Addr Addr Addr Addr) Bool)
(declare-fun inv_main85 (Heap Addr Addr Addr Addr Addr Addr Addr Addr Addr) Bool)
(declare-fun inv_main90 (Heap Addr Addr Addr Addr Addr Addr) Bool)
(declare-fun inv_main92 (Heap Addr Addr Addr Addr Addr Addr) Bool)
(declare-fun inv_main93 (Heap Addr Addr Addr Addr Addr Addr) Bool)
(declare-fun inv_main96 (Heap Addr Addr Addr Addr Addr Addr Addr) Bool)
(assert (inv_main2 emptyHeap))
(assert (forall ((var0 sl_item) (var1 Addr) (var2 Addr) (var3 Addr) (var4 Addr) (var5 Heap) (var6 Addr) (var7 Addr) (var8 Addr) (var9 Addr) (var10 Addr) (var11 Heap)) (or (not (and (inv_main42 var11 var10 var9 var8 var7 var6) (and (is-O_sl (read var11 var7)) (and (and (and (and (= var5 (write var11 var7 (O_sl (sl var6 (tail (getsl (read var11 var7))))))) (= var4 var10)) (= var3 var9)) (= var2 var8)) (= var1 var7))))) (inv_main44 (newHeap (alloc var5 (O_sl_item var0))) var4 var3 var2 var1 (newAddr (alloc var5 (O_sl_item var0)))))))
(assert (forall ((var0 Addr) (var1 Addr) (var2 Addr) (var3 Addr) (var4 Addr) (var5 Addr) (var6 Heap)) (or (not (and (inv_main90 var6 var5 var4 var3 var2 var1 var0) (and (is-O_sl (read var6 var1)) (not (= (head (getsl (read var6 var1))) nullAddr))))) (inv_main92 var6 var5 var4 var3 var2 var1 var0))))
(assert (forall ((var0 Addr) (var1 Addr) (var2 Addr) (var3 Addr) (var4 Addr) (var5 Heap)) (or (not (and (inv_main44 var5 var4 var3 var2 var1 var0) (is-O_sl (read var5 var1)))) (inv_main43 (write var5 var1 (O_sl (sl (head (getsl (read var5 var1))) var0))) var4 var3 var2 var1))))
(assert (forall ((var0 Addr) (var1 Addr) (var2 Addr) (var3 Heap) (var4 Int) (var5 Addr) (var6 Addr) (var7 Addr) (var8 Heap)) (or (not (and (inv_main30 var8 var7 var6 var5) (and (and (not (= var4 1)) (is-O_node (read var8 var5))) (and (and (and (and (= var3 var8) (= var2 var7)) (= var1 var6)) (= var0 var5)) (= var4 (h (getnode (read var8 var5)))))))) (inv_main32 var3 var2 var1 var0))))
(assert (forall ((var0 Addr) (var1 Addr) (var2 Addr) (var3 Addr) (var4 Addr) (var5 Addr) (var6 Addr) (var7 Addr) (var8 Heap)) (or (not (and (inv_main59 var8 var7 var6 var5 var4 var3 var2 var1 var0) (is-O_sl_item (read var8 var1)))) (inv_main63 var8 var7 var6 var5 var4 var3 var2 var1 var0 (n2 (getsl_item (read var8 var1)))))))
(assert (forall ((var0 Addr) (var1 Addr) (var2 Addr) (var3 Addr) (var4 Addr) (var5 Addr) (var6 Addr) (var7 Addr) (var8 Heap)) (or (not (and (inv_main76 var8 var7 var6 var5 var4 var3 var2 var1 var0) (is-O_sl_item (read var8 var2)))) (inv_main79 var8 var7 var6 var5 var4 var3 var2 var1 var0 (n1 (getsl_item (read var8 var2)))))))
(assert (forall ((var0 Addr) (var1 Addr) (var2 Addr) (var3 Heap)) (or (not (and (inv_main18 var3 var2 var1 var0) (is-O_node (read var3 var0)))) (inv_main24 (write var3 var0 (O_node (node (h (getnode (read var3 var0))) var1))) var2 var1 var0))))
(assert (forall ((var0 Addr) (var1 Addr) (var2 Addr) (var3 Addr) (var4 Addr) (var5 Addr) (var6 node) (var7 Heap) (var8 Heap) (var9 Addr) (var10 Addr) (var11 Addr) (var12 Addr) (var13 Heap)) (or (not (and (inv_main13 var13 var12 var11 var10) (and (not (= var9 nullAddr)) (and (and (and (and (and (and (= var8 (newHeap (alloc var7 (O_node var6)))) (= var5 var4)) (= var3 var2)) (= var1 var0)) (= var9 (newAddr (alloc var7 (O_node var6))))) (is-O_node (read var13 var10))) (and (and (and (= var7 (write var13 var10 (O_node (node 1 (n (getnode (read var13 var10))))))) (= var4 var12)) (= var2 var11)) (= var0 var10)))))) (inv_main18 var8 var5 var9 var1))))
(assert (forall ((var0 Addr) (var1 Addr) (var2 Addr) (var3 Addr) (var4 Addr) (var5 Addr) (var6 Addr) (var7 Addr) (var8 Heap) (var9 Int) (var10 Addr) (var11 Addr) (var12 Addr) (var13 Addr) (var14 Addr) (var15 Addr) (var16 Addr) (var17 Addr) (var18 Heap)) (or (not (and (inv_main78 var18 var17 var16 var15 var14 var13 var12 var11 var10) (and (not (= var9 0)) (and (is-O_sl_item (read var18 var12)) (and (and (and (and (and (and (and (and (= var8 (write var18 var12 (O_sl_item (sl_item var10 (n2 (getsl_item (read var18 var12))))))) (= var7 var17)) (= var6 var16)) (= var5 var15)) (= var4 var14)) (= var3 var13)) (= var2 var12)) (= var1 var11)) (= var0 var10)))))) (inv_main81 var8 var7 var6 var5 var4 var3 var2 var1 var0))))
(assert (forall ((var0 Addr) (var1 Addr) (var2 Addr) (var3 Addr) (var4 Addr) (var5 Addr) (var6 Addr) (var7 Addr) (var8 Addr) (var9 Heap) (var10 Addr) (var11 Addr) (var12 Addr) (var13 Addr) (var14 Addr) (var15 Addr) (var16 Addr) (var17 Addr) (var18 Heap)) (or (not (and (inv_main70 var18 var17 var16 var15 var14 var13 var12 var11 var10) (and (is-O_sl_item (read var18 var12)) (and (and (and (and (and (and (and (and (and (= var9 var18) (= var8 var17)) (= var7 var16)) (= var6 var15)) (= var5 var14)) (= var4 var13)) (= var3 var12)) (= var2 var11)) (= var1 var10)) (= var0 (n1 (getsl_item (read var18 var12)))))))) (inv_main68 var9 var8 var7 var6 var5 var4 var0 var2 var1))))
(assert (forall ((var0 Addr) (var1 Addr) (var2 Addr) (var3 Addr) (var4 Addr) (var5 Addr) (var6 Addr) (var7 Addr) (var8 Heap) (var9 Int) (var10 Addr) (var11 Addr) (var12 Addr) (var13 Addr) (var14 Addr) (var15 Addr) (var16 Addr) (var17 Addr) (var18 Addr) (var19 Heap)) (or (not (and (inv_main63 var19 var18 var17 var16 var15 var14 var13 var12 var11 var10) (and (and (= var9 0) (is-O_sl (read var19 var14))) (and (and (and (and (and (and (and (and (and (= var8 var19) (= var7 var18)) (= var6 var17)) (= var5 var16)) (= var4 var15)) (= var3 var14)) (= var2 var13)) (= var1 var12)) (= var0 var11)) (or (and (not (= var10 (tail (getsl (read var19 var14))))) (= var9 1)) (and (= var10 (tail (getsl (read var19 var14)))) (= var9 0))))))) (inv_main68 var8 var7 var6 var5 var4 var3 var1 var1 var0))))
(assert (forall ((var0 Addr) (var1 Addr) (var2 Addr) (var3 Addr) (var4 Addr) (var5 Addr) (var6 Addr) (var7 Addr) (var8 Heap) (var9 Int) (var10 Int) (var11 Addr) (var12 Addr) (var13 Addr) (var14 Addr) (var15 Addr) (var16 Addr) (var17 Addr) (var18 Addr) (var19 Addr) (var20 Heap)) (or (not (and (inv_main63 var20 var19 var18 var17 var16 var15 var14 var13 var12 var11) (and (= var10 0) (and (and (not (= var9 0)) (is-O_sl (read var20 var15))) (and (and (and (and (and (and (and (and (and (= var8 var20) (= var7 var19)) (= var6 var18)) (= var5 var17)) (= var4 var16)) (= var3 var15)) (= var2 var14)) (= var1 var13)) (= var0 var12)) (or (and (not (= var11 (tail (getsl (read var20 var15))))) (= var9 1)) (and (= var11 (tail (getsl (read var20 var15)))) (= var9 0)))))))) (inv_main68 var8 var7 var6 var5 var4 var3 var1 var1 var0))))
(assert (forall ((var0 Addr) (var1 Addr) (var2 Addr) (var3 Addr) (var4 Addr) (var5 Heap)) (or (not (and (inv_main47 var5 var4 var3 var2 var1 var0) (and (is-O_sl (read var5 var1)) (is-O_sl_item (read var5 (head (getsl (read var5 var1)))))))) (inv_main45 (write var5 (head (getsl (read var5 var1))) (O_sl_item (sl_item (n1 (getsl_item (read var5 (head (getsl (read var5 var1)))))) var0))) var4 var3 var2 var1))))
(assert (forall ((var0 Addr) (var1 Addr) (var2 Addr) (var3 Heap)) (or (not (and (inv_main12 var3 var2 var1 var0) (is-O_node (read var3 var0)))) (inv_main26 (write var3 var0 (O_node (node 1 (n (getnode (read var3 var0)))))) var2 var1 var0))))
(assert (forall ((var0 Addr) (var1 Addr) (var2 Addr) (var3 Addr) (var4 Heap) (var5 Int) (var6 Addr) (var7 Addr) (var8 Addr) (var9 Heap)) (or (not (and (inv_main24 var9 var8 var7 var6) (and (not (= var5 0)) (and (is-O_node (read var9 var6)) (and (and (and (and (= var4 var9) (= var3 var8)) (= var2 var7)) (= var1 var6)) (= var0 (n (getnode (read var9 var6))))))))) (inv_main13 var4 var3 var2 var0))))
(assert (forall ((var0 Addr) (var1 node) (var2 Heap) (var3 Addr) (var4 Int) (var5 Heap)) (or (not (and (inv_main2 var5) (and (not (= var4 0)) (and (not (= var3 nullAddr)) (and (= var2 (newHeap (alloc var5 (O_node var1)))) (= var3 (newAddr (alloc var5 (O_node var1))))))))) (inv_main13 var2 var3 var0 var3))))
(assert (forall ((var0 Addr) (var1 Addr) (var2 Addr) (var3 Addr) (var4 Addr) (var5 Addr) (var6 Addr) (var7 Heap) (var8 Addr) (var9 Addr) (var10 Addr) (var11 Addr) (var12 Addr) (var13 Addr) (var14 Heap)) (or (not (and (inv_main92 var14 var13 var12 var11 var10 var9 var8) (and (is-O_sl (read var14 var9)) (and (and (and (and (and (and (and (= var7 var14) (= var6 var13)) (= var5 var12)) (= var4 var11)) (= var3 var10)) (= var2 var9)) (= var1 var8)) (= var0 (head (getsl (read var14 var9)))))))) (inv_main93 var7 var6 var5 var4 var3 var2 var0))))
(assert (forall ((var0 Int) (var1 Addr) (var2 Heap)) (or (not (inv_main7 var2 var1 var0)) (inv_main7 var2 var1 var0))))
(assert (forall ((var0 node) (var1 Heap) (var2 Addr) (var3 Heap)) (or (not (and (inv_main2 var3) (and (= var2 nullAddr) (and (= var1 (newHeap (alloc var3 (O_node var0)))) (= var2 (newAddr (alloc var3 (O_node var0)))))))) (inv_main7 var1 var2 1))))
(assert (forall ((var0 Addr) (var1 Addr) (var2 Addr) (var3 Addr) (var4 Heap) (var5 Addr) (var6 Addr) (var7 Addr) (var8 Addr) (var9 Addr) (var10 Heap)) (or (not (and (inv_main49 var10 var9 var8 var7 var6 var5) (and (and (is-O_sl (read var10 var6)) (is-O_sl_item (read var10 (tail (getsl (read var10 var6)))))) (and (and (and (and (= var4 (write var10 (tail (getsl (read var10 var6))) (O_sl_item (sl_item (n1 (getsl_item (read var10 (tail (getsl (read var10 var6)))))) var5)))) (= var3 var9)) (= var2 var8)) (= var1 var7)) (= var0 var6))))) (inv_main50 var4 var3 var2 var1 var0))))
(assert (forall ((var0 Addr) (var1 Addr) (var2 Addr) (var3 Addr) (var4 Addr) (var5 Heap) (var6 Addr) (var7 Addr) (var8 Addr) (var9 Addr) (var10 Addr) (var11 Addr) (var12 Addr) (var13 Addr) (var14 Heap)) (or (not (and (inv_main84 var14 var13 var12 var11 var10 var9 var8 var7 var6) (and (is-O_sl_item (read var14 var7)) (and (and (and (and (and (= var5 (write var14 var7 (O_sl_item (sl_item (n1 (getsl_item (read var14 var7))) var6)))) (= var4 var13)) (= var3 var12)) (= var2 var11)) (= var1 var10)) (= var0 var9))))) (inv_main50 var5 var4 var3 var2 var1))))
(assert (forall ((var0 Addr) (var1 Addr) (var2 Addr) (var3 Addr) (var4 Addr) (var5 Addr) (var6 Addr) (var7 Addr) (var8 Heap) (var9 Int) (var10 Addr) (var11 Addr) (var12 Addr) (var13 Addr) (var14 Addr) (var15 Addr) (var16 Addr) (var17 Addr) (var18 Heap)) (or (not (and (inv_main78 var18 var17 var16 var15 var14 var13 var12 var11 var10) (and (= var9 0) (and (is-O_sl_item (read var18 var12)) (and (and (and (and (and (and (and (and (= var8 (write var18 var12 (O_sl_item (sl_item var10 (n2 (getsl_item (read var18 var12))))))) (= var7 var17)) (= var6 var16)) (= var5 var15)) (= var4 var14)) (= var3 var13)) (= var2 var12)) (= var1 var11)) (= var0 var10)))))) (inv_main50 var8 var7 var6 var5 var4))))
(assert (forall ((var0 Addr) (var1 Addr) (var2 Addr) (var3 Addr) (var4 Addr) (var5 Addr) (var6 Addr) (var7 Addr) (var8 Heap)) (or (not (and (inv_main68 var8 var7 var6 var5 var4 var3 var2 var1 var0) (is-O_sl_item (read var8 var2)))) (inv_main71 var8 var7 var6 var5 var4 var3 var2 var1 var0 (n1 (getsl_item (read var8 var2)))))))
(assert (forall ((var0 Addr) (var1 Addr) (var2 Addr) (var3 Addr) (var4 Addr) (var5 Addr) (var6 Heap) (var7 Addr) (var8 Addr) (var9 Addr) (var10 Addr) (var11 Addr) (var12 Addr) (var13 Addr) (var14 Heap)) (or (not (and (inv_main96 var14 var13 var12 var11 var10 var9 var8 var7) (and (is-O_sl (read var14 var9)) (and (and (and (and (and (and (= var6 (write var14 var9 (O_sl (sl var7 (tail (getsl (read var14 var9))))))) (= var5 var13)) (= var4 var12)) (= var3 var11)) (= var2 var10)) (= var1 var9)) (= var0 var8))))) (inv_main90 (write var6 var0 defObj) var5 var4 var3 var2 var1 var0))))
(assert (forall ((var0 Addr) (var1 Int) (var2 Addr) (var3 Addr) (var4 Addr) (var5 Addr) (var6 Heap)) (or (not (and (inv_main50 var6 var5 var4 var3 var2) (= var1 0))) (inv_main90 var6 var5 var4 var3 var2 var2 var0))))
(assert (forall ((var0 sl_item) (var1 Addr) (var2 Addr) (var3 Addr) (var4 Addr) (var5 Addr) (var6 Addr) (var7 Addr) (var8 Addr) (var9 sl) (var10 Heap) (var11 Heap) (var12 Addr) (var13 Addr) (var14 Addr) (var15 Heap)) (or (not (and (inv_main31 var15 var14 var13 var12) (and (and (and (and (and (and (= var11 (newHeap (alloc var10 (O_sl var9)))) (= var8 var7)) (= var6 var5)) (= var4 var3)) (= var2 (newAddr (alloc var10 (O_sl var9))))) (= var3 nullAddr)) (and (is-O_node (read var15 var12)) (and (and (and (and (= var10 var15) (= var7 var14)) (= var5 var13)) (= var1 var12)) (= var3 (n (getnode (read var15 var12))))))))) (inv_main42 (newHeap (alloc var11 (O_sl_item var0))) var8 var6 var4 var2 (newAddr (alloc var11 (O_sl_item var0)))))))
(assert (forall ((var0 sl_item) (var1 Addr) (var2 Addr) (var3 Addr) (var4 Addr) (var5 Addr) (var6 Addr) (var7 Addr) (var8 sl) (var9 Heap) (var10 Heap) (var11 Addr) (var12 Addr) (var13 Addr) (var14 Heap)) (or (not (and (inv_main26 var14 var13 var12 var11) (and (and (and (and (and (and (= var10 (newHeap (alloc var9 (O_sl var8)))) (= var7 var6)) (= var5 var4)) (= var3 var6)) (= var2 (newAddr (alloc var9 (O_sl var8))))) (= var6 nullAddr)) (and (is-O_node (read var14 var11)) (and (and (and (= var9 (write var14 var11 (O_node (node (h (getnode (read var14 var11))) 0)))) (= var6 var13)) (= var4 var12)) (= var1 var11)))))) (inv_main42 (newHeap (alloc var10 (O_sl_item var0))) var7 var5 var3 var2 (newAddr (alloc var10 (O_sl_item var0)))))))
(assert (forall ((var0 Addr) (var1 Addr) (var2 Addr) (var3 Addr) (var4 Addr) (var5 Addr) (var6 Addr) (var7 Addr) (var8 Addr) (var9 Heap)) (or (not (and (inv_main79 var9 var8 var7 var6 var5 var4 var3 var2 var1 var0) (is-O_sl_item (read var9 var1)))) (inv_main78 (write var9 var1 (O_sl_item (sl_item var0 (n2 (getsl_item (read var9 var1)))))) var8 var7 var6 var5 var4 var3 var2 var1))))
(assert (forall ((var0 Addr) (var1 Addr) (var2 Addr) (var3 Addr) (var4 Addr) (var5 Addr) (var6 Addr) (var7 Addr) (var8 Heap) (var9 Int) (var10 Int) (var11 Addr) (var12 Addr) (var13 Addr) (var14 Addr) (var15 Addr) (var16 Addr) (var17 Addr) (var18 Addr) (var19 Addr) (var20 Heap)) (or (not (and (inv_main63 var20 var19 var18 var17 var16 var15 var14 var13 var12 var11) (and (not (= var10 0)) (and (and (not (= var9 0)) (is-O_sl (read var20 var15))) (and (and (and (and (and (and (and (and (and (= var8 var20) (= var7 var19)) (= var6 var18)) (= var5 var17)) (= var4 var16)) (= var3 var15)) (= var2 var14)) (= var1 var13)) (= var0 var12)) (or (and (not (= var11 (tail (getsl (read var20 var15))))) (= var9 1)) (and (= var11 (tail (getsl (read var20 var15)))) (= var9 0)))))))) (inv_main62 var8 var7 var6 var5 var4 var3 var2 var1 var0))))
(assert (forall ((var0 Int) (var1 Addr) (var2 Addr) (var3 Addr) (var4 Heap)) (or (not (inv_main21 var4 var3 var2 var1 var0)) (inv_main21 var4 var3 var2 var1 var0))))
(assert (forall ((var0 Addr) (var1 Addr) (var2 Addr) (var3 Addr) (var4 Addr) (var5 Addr) (var6 node) (var7 Heap) (var8 Heap) (var9 Addr) (var10 Addr) (var11 Addr) (var12 Addr) (var13 Heap)) (or (not (and (inv_main13 var13 var12 var11 var10) (and (= var9 nullAddr) (and (and (and (and (and (and (= var8 (newHeap (alloc var7 (O_node var6)))) (= var5 var4)) (= var3 var2)) (= var1 var0)) (= var9 (newAddr (alloc var7 (O_node var6))))) (is-O_node (read var13 var10))) (and (and (and (= var7 (write var13 var10 (O_node (node 1 (n (getnode (read var13 var10))))))) (= var4 var12)) (= var2 var11)) (= var0 var10)))))) (inv_main21 var8 var5 var9 var1 1))))
(assert (forall ((var0 Addr) (var1 Addr) (var2 Addr) (var3 Addr) (var4 Heap) (var5 Int) (var6 Addr) (var7 Addr) (var8 Addr) (var9 Heap)) (or (not (and (inv_main24 var9 var8 var7 var6) (and (= var5 0) (and (is-O_node (read var9 var6)) (and (and (and (and (= var4 var9) (= var3 var8)) (= var2 var7)) (= var1 var6)) (= var0 (n (getnode (read var9 var6))))))))) (inv_main12 var4 var3 var2 var0))))
(assert (forall ((var0 Addr) (var1 node) (var2 Heap) (var3 Addr) (var4 Int) (var5 Heap)) (or (not (and (inv_main2 var5) (and (= var4 0) (and (not (= var3 nullAddr)) (and (= var2 (newHeap (alloc var5 (O_node var1)))) (= var3 (newAddr (alloc var5 (O_node var1))))))))) (inv_main12 var2 var3 var0 var3))))
(assert (forall ((var0 Addr) (var1 Addr) (var2 Addr) (var3 Addr) (var4 Addr) (var5 Heap)) (or (not (and (inv_main46 var5 var4 var3 var2 var1 var0) (and (is-O_sl (read var5 var1)) (is-O_sl_item (read var5 (head (getsl (read var5 var1)))))))) (inv_main47 (write var5 (head (getsl (read var5 var1))) (O_sl_item (sl_item var0 (n2 (getsl_item (read var5 (head (getsl (read var5 var1))))))))) var4 var3 var2 var1 var0))))
(assert (forall ((var0 Addr) (var1 Addr) (var2 Addr) (var3 Int) (var4 Addr) (var5 Addr) (var6 Addr) (var7 Addr) (var8 Heap)) (or (not (and (inv_main50 var8 var7 var6 var5 var4) (not (= var3 0)))) (inv_main58 var8 var7 var6 var5 var4 var4 var2 var1 var0))))
(assert (forall ((var0 Addr) (var1 Addr) (var2 Addr) (var3 Addr) (var4 Heap)) (or (not (and (inv_main43 var4 var3 var2 var1 var0) (is-O_sl (read var4 var0)))) (inv_main46 var4 var3 var2 var1 var0 (tail (getsl (read var4 var0)))))))
(assert (forall ((var0 Addr) (var1 Addr) (var2 Addr) (var3 Addr) (var4 Addr) (var5 Addr) (var6 Addr) (var7 Addr) (var8 Addr) (var9 Heap)) (or (not (and (inv_main85 var9 var8 var7 var6 var5 var4 var3 var2 var1 var0) (is-O_sl_item (read var9 var1)))) (inv_main84 (write var9 var1 (O_sl_item (sl_item (n1 (getsl_item (read var9 var1))) var0))) var8 var7 var6 var5 var4 var3 var2 var1))))
(assert (forall ((var0 Addr) (var1 Addr) (var2 Addr) (var3 Heap) (var4 Addr) (var5 Addr) (var6 Addr) (var7 Addr) (var8 Heap)) (or (not (and (inv_main31 var8 var7 var6 var5) (and (not (= var4 nullAddr)) (and (is-O_node (read var8 var5)) (and (and (and (and (= var3 var8) (= var2 var7)) (= var1 var6)) (= var0 var5)) (= var4 (n (getnode (read var8 var5))))))))) (inv_main30 var3 var2 var1 var4))))
(assert (forall ((var0 Addr) (var1 Addr) (var2 Heap) (var3 Addr) (var4 Addr) (var5 Addr) (var6 Addr) (var7 Heap)) (or (not (and (inv_main26 var7 var6 var5 var4) (and (not (= var3 nullAddr)) (and (is-O_node (read var7 var4)) (and (and (and (= var2 (write var7 var4 (O_node (node (h (getnode (read var7 var4))) 0)))) (= var3 var6)) (= var1 var5)) (= var0 var4)))))) (inv_main30 var2 var3 var1 var3))))
(assert (forall ((var0 Addr) (var1 Addr) (var2 Addr) (var3 Addr) (var4 Addr) (var5 Addr) (var6 Addr) (var7 Addr) (var8 Addr) (var9 Heap) (var10 Addr) (var11 Addr) (var12 Addr) (var13 Addr) (var14 Addr) (var15 Addr) (var16 Addr) (var17 Addr) (var18 Heap)) (or (not (and (inv_main58 var18 var17 var16 var15 var14 var13 var12 var11 var10) (and (is-O_sl (read var18 var13)) (and (and (and (and (and (and (and (and (and (= var9 var18) (= var8 var17)) (= var7 var16)) (= var6 var15)) (= var5 var14)) (= var4 var13)) (= var3 var12)) (= var2 var11)) (= var1 var10)) (= var0 (head (getsl (read var18 var13)))))))) (inv_main59 var9 var8 var7 var6 var5 var4 var3 var0 var1))))
(assert (forall ((var0 Addr) (var1 Addr) (var2 Addr) (var3 Addr) (var4 Addr) (var5 Addr) (var6 Addr) (var7 Addr) (var8 Addr) (var9 Heap) (var10 Addr) (var11 Addr) (var12 Addr) (var13 Addr) (var14 Addr) (var15 Addr) (var16 Addr) (var17 Addr) (var18 Heap)) (or (not (and (inv_main62 var18 var17 var16 var15 var14 var13 var12 var11 var10) (and (is-O_sl_item (read var18 var11)) (and (and (and (and (and (and (and (and (and (= var9 var18) (= var8 var17)) (= var7 var16)) (= var6 var15)) (= var5 var14)) (= var4 var13)) (= var3 var12)) (= var2 var11)) (= var1 var10)) (= var0 (n2 (getsl_item (read var18 var11)))))))) (inv_main59 var9 var8 var7 var6 var5 var4 var3 var0 var1))))
(assert (forall ((var0 Int) (var1 Addr) (var2 Addr) (var3 Addr) (var4 Addr) (var5 Addr) (var6 Addr) (var7 Addr) (var8 Addr) (var9 Addr) (var10 Addr) (var11 Addr) (var12 Addr) (var13 Addr) (var14 Addr) (var15 Addr) (var16 Addr) (var17 Addr) (var18 sl_item) (var19 Heap) (var20 Heap) (var21 Addr) (var22 Addr) (var23 Addr) (var24 Addr) (var25 Addr) (var26 Addr) (var27 Addr) (var28 Addr) (var29 Addr) (var30 Heap)) (or (not (and (inv_main71 var30 var29 var28 var27 var26 var25 var24 var23 var22 var21) (and (and (and (and (and (and (and (and (and (and (= var20 (newHeap (alloc var19 (O_sl_item var18)))) (= var17 var16)) (= var15 var14)) (= var13 var12)) (= var11 var10)) (= var9 var8)) (= var7 var6)) (= var5 var4)) (= var3 var2)) (= var1 (newAddr (alloc var19 (O_sl_item var18))))) (and (and (= var0 0) (is-O_sl_item (read var30 var23))) (and (and (and (and (and (and (and (and (and (= var19 var30) (= var16 var29)) (= var14 var28)) (= var12 var27)) (= var10 var26)) (= var8 var25)) (= var6 var24)) (= var4 var23)) (= var2 var22)) (or (and (not (= var21 (n2 (getsl_item (read var30 var23))))) (= var0 1)) (and (= var21 (n2 (getsl_item (read var30 var23)))) (= var0 0)))))))) (inv_main76 var20 var17 var15 var13 var11 var9 var7 var5 var1))))
(assert (forall ((var0 Int) (var1 Int) (var2 Addr) (var3 Addr) (var4 Addr) (var5 Addr) (var6 Addr) (var7 Addr) (var8 Addr) (var9 Addr) (var10 Addr) (var11 Addr) (var12 Addr) (var13 Addr) (var14 Addr) (var15 Addr) (var16 Addr) (var17 Addr) (var18 Addr) (var19 sl_item) (var20 Heap) (var21 Heap) (var22 Addr) (var23 Addr) (var24 Addr) (var25 Addr) (var26 Addr) (var27 Addr) (var28 Addr) (var29 Addr) (var30 Addr) (var31 Heap)) (or (not (and (inv_main71 var31 var30 var29 var28 var27 var26 var25 var24 var23 var22) (and (and (and (and (and (and (and (and (and (and (= var21 (newHeap (alloc var20 (O_sl_item var19)))) (= var18 var17)) (= var16 var15)) (= var14 var13)) (= var12 var11)) (= var10 var9)) (= var8 var7)) (= var6 var5)) (= var4 var3)) (= var2 (newAddr (alloc var20 (O_sl_item var19))))) (and (= var1 0) (and (and (not (= var0 0)) (is-O_sl_item (read var31 var24))) (and (and (and (and (and (and (and (and (and (= var20 var31) (= var17 var30)) (= var15 var29)) (= var13 var28)) (= var11 var27)) (= var9 var26)) (= var7 var25)) (= var5 var24)) (= var3 var23)) (or (and (not (= var22 (n2 (getsl_item (read var31 var24))))) (= var0 1)) (and (= var22 (n2 (getsl_item (read var31 var24)))) (= var0 0))))))))) (inv_main76 var21 var18 var16 var14 var12 var10 var8 var6 var2))))
(assert (forall ((var0 Addr) (var1 Addr) (var2 Addr) (var3 Addr) (var4 Addr) (var5 Addr) (var6 Addr) (var7 Addr) (var8 Heap) (var9 Int) (var10 Int) (var11 Addr) (var12 Addr) (var13 Addr) (var14 Addr) (var15 Addr) (var16 Addr) (var17 Addr) (var18 Addr) (var19 Addr) (var20 Heap)) (or (not (and (inv_main71 var20 var19 var18 var17 var16 var15 var14 var13 var12 var11) (and (not (= var10 0)) (and (and (not (= var9 0)) (is-O_sl_item (read var20 var13))) (and (and (and (and (and (and (and (and (and (= var8 var20) (= var7 var19)) (= var6 var18)) (= var5 var17)) (= var4 var16)) (= var3 var15)) (= var2 var14)) (= var1 var13)) (= var0 var12)) (or (and (not (= var11 (n2 (getsl_item (read var20 var13))))) (= var9 1)) (and (= var11 (n2 (getsl_item (read var20 var13)))) (= var9 0)))))))) (inv_main70 var8 var7 var6 var5 var4 var3 var2 var1 var0))))
(assert (forall ((var0 Addr) (var1 Addr) (var2 Addr) (var3 Addr) (var4 Heap)) (or (not (and (inv_main45 var4 var3 var2 var1 var0) (and (is-O_sl (read var4 var0)) (is-O_sl_item (read var4 (tail (getsl (read var4 var0)))))))) (inv_main49 (write var4 (tail (getsl (read var4 var0))) (O_sl_item (sl_item nullAddr (n2 (getsl_item (read var4 (tail (getsl (read var4 var0))))))))) var3 var2 var1 var0 nullAddr))))
(assert (forall ((var0 Addr) (var1 Addr) (var2 Addr) (var3 Addr) (var4 Addr) (var5 Addr) (var6 Heap)) (or (not (and (inv_main93 var6 var5 var4 var3 var2 var1 var0) (and (is-O_sl (read var6 var1)) (is-O_sl_item (read var6 (head (getsl (read var6 var1)))))))) (inv_main96 var6 var5 var4 var3 var2 var1 var0 (n1 (getsl_item (read var6 (head (getsl (read var6 var1))))))))))
(assert (forall ((var0 Addr) (var1 Addr) (var2 Addr) (var3 Heap) (var4 Int) (var5 Addr) (var6 Addr) (var7 Addr) (var8 Heap)) (or (not (and (inv_main30 var8 var7 var6 var5) (and (and (= var4 1) (is-O_node (read var8 var5))) (and (and (and (and (= var3 var8) (= var2 var7)) (= var1 var6)) (= var0 var5)) (= var4 (h (getnode (read var8 var5)))))))) (inv_main31 var3 var2 var1 var0))))
(assert (forall ((var0 Addr) (var1 Addr) (var2 Addr) (var3 Addr) (var4 Addr) (var5 Addr) (var6 Addr) (var7 Addr) (var8 Heap)) (or (not (and (inv_main81 var8 var7 var6 var5 var4 var3 var2 var1 var0) (is-O_sl_item (read var8 var1)))) (inv_main85 var8 var7 var6 var5 var4 var3 var2 var1 var0 (n2 (getsl_item (read var8 var1)))))))
(assert (forall ((var0 Addr) (var1 Addr) (var2 Addr) (var3 Heap)) (not (and (inv_main13 var3 var2 var1 var0) (not (is-O_node (read var3 var0)))))))
(assert (forall ((var0 Addr) (var1 Addr) (var2 Addr) (var3 Heap)) (not (and (inv_main18 var3 var2 var1 var0) (not (is-O_node (read var3 var0)))))))
(assert (forall ((var0 Addr) (var1 Addr) (var2 Addr) (var3 Heap)) (not (and (inv_main24 var3 var2 var1 var0) (not (is-O_node (read var3 var0)))))))
(assert (forall ((var0 Addr) (var1 Addr) (var2 Addr) (var3 Heap)) (not (and (inv_main12 var3 var2 var1 var0) (not (is-O_node (read var3 var0)))))))
(assert (forall ((var0 Addr) (var1 Addr) (var2 Addr) (var3 Heap)) (not (and (inv_main26 var3 var2 var1 var0) (not (is-O_node (read var3 var0)))))))
(assert (forall ((var0 Addr) (var1 Addr) (var2 Addr) (var3 Heap)) (not (and (inv_main30 var3 var2 var1 var0) (not (is-O_node (read var3 var0)))))))
(assert (forall ((var0 Addr) (var1 Addr) (var2 Addr) (var3 Heap)) (not (inv_main32 var3 var2 var1 var0))))
(assert (forall ((var0 Addr) (var1 Addr) (var2 Addr) (var3 Heap)) (not (and (inv_main31 var3 var2 var1 var0) (not (is-O_node (read var3 var0)))))))
(assert (forall ((var0 Addr) (var1 Addr) (var2 Addr) (var3 Addr) (var4 Addr) (var5 Heap)) (not (and (inv_main42 var5 var4 var3 var2 var1 var0) (not (is-O_sl (read var5 var1)))))))
(assert (forall ((var0 Addr) (var1 Addr) (var2 Addr) (var3 Addr) (var4 Addr) (var5 Heap)) (not (and (inv_main44 var5 var4 var3 var2 var1 var0) (not (is-O_sl (read var5 var1)))))))
(assert (forall ((var0 Addr) (var1 Addr) (var2 Addr) (var3 Addr) (var4 Heap)) (not (and (inv_main43 var4 var3 var2 var1 var0) (not (is-O_sl (read var4 var0)))))))
(assert (forall ((var0 Addr) (var1 Addr) (var2 Addr) (var3 Addr) (var4 Addr) (var5 Heap)) (not (and (inv_main46 var5 var4 var3 var2 var1 var0) (not (is-O_sl (read var5 var1)))))))
(assert (forall ((var0 Addr) (var1 Addr) (var2 Addr) (var3 Addr) (var4 Addr) (var5 Heap)) (not (and (inv_main46 var5 var4 var3 var2 var1 var0) (and (is-O_sl (read var5 var1)) (not (is-O_sl_item (read var5 (head (getsl (read var5 var1)))))))))))
(assert (forall ((var0 Addr) (var1 Addr) (var2 Addr) (var3 Addr) (var4 Addr) (var5 Heap)) (not (and (inv_main47 var5 var4 var3 var2 var1 var0) (not (is-O_sl (read var5 var1)))))))
(assert (forall ((var0 Addr) (var1 Addr) (var2 Addr) (var3 Addr) (var4 Addr) (var5 Heap)) (not (and (inv_main47 var5 var4 var3 var2 var1 var0) (and (is-O_sl (read var5 var1)) (not (is-O_sl_item (read var5 (head (getsl (read var5 var1)))))))))))
(assert (forall ((var0 Addr) (var1 Addr) (var2 Addr) (var3 Addr) (var4 Heap)) (not (and (inv_main45 var4 var3 var2 var1 var0) (not (is-O_sl (read var4 var0)))))))
(assert (forall ((var0 Addr) (var1 Addr) (var2 Addr) (var3 Addr) (var4 Heap)) (not (and (inv_main45 var4 var3 var2 var1 var0) (and (is-O_sl (read var4 var0)) (not (is-O_sl_item (read var4 (tail (getsl (read var4 var0)))))))))))
(assert (forall ((var0 Addr) (var1 Addr) (var2 Addr) (var3 Addr) (var4 Addr) (var5 Heap)) (not (and (inv_main49 var5 var4 var3 var2 var1 var0) (not (is-O_sl (read var5 var1)))))))
(assert (forall ((var0 Addr) (var1 Addr) (var2 Addr) (var3 Addr) (var4 Addr) (var5 Heap)) (not (and (inv_main49 var5 var4 var3 var2 var1 var0) (and (is-O_sl (read var5 var1)) (not (is-O_sl_item (read var5 (tail (getsl (read var5 var1)))))))))))
(assert (forall ((var0 Addr) (var1 Addr) (var2 Addr) (var3 Addr) (var4 Addr) (var5 Addr) (var6 Addr) (var7 Addr) (var8 Heap)) (not (and (inv_main58 var8 var7 var6 var5 var4 var3 var2 var1 var0) (not (is-O_sl (read var8 var3)))))))
(assert (forall ((var0 Addr) (var1 Addr) (var2 Addr) (var3 Addr) (var4 Addr) (var5 Addr) (var6 Addr) (var7 Addr) (var8 Heap)) (not (and (inv_main59 var8 var7 var6 var5 var4 var3 var2 var1 var0) (not (is-O_sl_item (read var8 var1)))))))
(assert (forall ((var0 Addr) (var1 Addr) (var2 Addr) (var3 Addr) (var4 Addr) (var5 Addr) (var6 Addr) (var7 Addr) (var8 Addr) (var9 Heap)) (not (and (inv_main63 var9 var8 var7 var6 var5 var4 var3 var2 var1 var0) (not (is-O_sl (read var9 var4)))))))
(assert (forall ((var0 Addr) (var1 Addr) (var2 Addr) (var3 Addr) (var4 Addr) (var5 Addr) (var6 Addr) (var7 Addr) (var8 Heap)) (not (and (inv_main62 var8 var7 var6 var5 var4 var3 var2 var1 var0) (not (is-O_sl_item (read var8 var1)))))))
(assert (forall ((var0 Addr) (var1 Addr) (var2 Addr) (var3 Addr) (var4 Addr) (var5 Addr) (var6 Addr) (var7 Addr) (var8 Heap)) (not (and (inv_main68 var8 var7 var6 var5 var4 var3 var2 var1 var0) (not (is-O_sl_item (read var8 var2)))))))
(assert (forall ((var0 Addr) (var1 Addr) (var2 Addr) (var3 Addr) (var4 Addr) (var5 Addr) (var6 Addr) (var7 Addr) (var8 Addr) (var9 Heap)) (not (and (inv_main71 var9 var8 var7 var6 var5 var4 var3 var2 var1 var0) (not (is-O_sl_item (read var9 var2)))))))
(assert (forall ((var0 Addr) (var1 Addr) (var2 Addr) (var3 Addr) (var4 Addr) (var5 Addr) (var6 Addr) (var7 Addr) (var8 Heap)) (not (and (inv_main70 var8 var7 var6 var5 var4 var3 var2 var1 var0) (not (is-O_sl_item (read var8 var2)))))))
(assert (forall ((var0 Addr) (var1 Addr) (var2 Addr) (var3 Addr) (var4 Addr) (var5 Addr) (var6 Addr) (var7 Addr) (var8 Heap)) (not (and (inv_main76 var8 var7 var6 var5 var4 var3 var2 var1 var0) (not (is-O_sl_item (read var8 var2)))))))
(assert (forall ((var0 Addr) (var1 Addr) (var2 Addr) (var3 Addr) (var4 Addr) (var5 Addr) (var6 Addr) (var7 Addr) (var8 Addr) (var9 Heap)) (not (and (inv_main79 var9 var8 var7 var6 var5 var4 var3 var2 var1 var0) (not (is-O_sl_item (read var9 var1)))))))
(assert (forall ((var0 Addr) (var1 Addr) (var2 Addr) (var3 Addr) (var4 Addr) (var5 Addr) (var6 Addr) (var7 Addr) (var8 Heap)) (not (and (inv_main78 var8 var7 var6 var5 var4 var3 var2 var1 var0) (not (is-O_sl_item (read var8 var2)))))))
(assert (forall ((var0 Addr) (var1 Addr) (var2 Addr) (var3 Addr) (var4 Addr) (var5 Addr) (var6 Addr) (var7 Addr) (var8 Heap)) (not (and (inv_main81 var8 var7 var6 var5 var4 var3 var2 var1 var0) (not (is-O_sl_item (read var8 var1)))))))
(assert (forall ((var0 Addr) (var1 Addr) (var2 Addr) (var3 Addr) (var4 Addr) (var5 Addr) (var6 Addr) (var7 Addr) (var8 Addr) (var9 Heap)) (not (and (inv_main85 var9 var8 var7 var6 var5 var4 var3 var2 var1 var0) (not (is-O_sl_item (read var9 var1)))))))
(assert (forall ((var0 Addr) (var1 Addr) (var2 Addr) (var3 Addr) (var4 Addr) (var5 Addr) (var6 Addr) (var7 Addr) (var8 Heap)) (not (and (inv_main84 var8 var7 var6 var5 var4 var3 var2 var1 var0) (not (is-O_sl_item (read var8 var1)))))))
(assert (forall ((var0 Addr) (var1 Addr) (var2 Addr) (var3 Addr) (var4 Addr) (var5 Addr) (var6 Heap)) (not (and (inv_main90 var6 var5 var4 var3 var2 var1 var0) (not (is-O_sl (read var6 var1)))))))
(assert (forall ((var0 Addr) (var1 Addr) (var2 Addr) (var3 Addr) (var4 Addr) (var5 Addr) (var6 Heap)) (not (and (inv_main92 var6 var5 var4 var3 var2 var1 var0) (not (is-O_sl (read var6 var1)))))))
(assert (forall ((var0 Addr) (var1 Addr) (var2 Addr) (var3 Addr) (var4 Addr) (var5 Addr) (var6 Heap)) (not (and (inv_main93 var6 var5 var4 var3 var2 var1 var0) (not (is-O_sl (read var6 var1)))))))
(assert (forall ((var0 Addr) (var1 Addr) (var2 Addr) (var3 Addr) (var4 Addr) (var5 Addr) (var6 Heap)) (not (and (inv_main93 var6 var5 var4 var3 var2 var1 var0) (and (is-O_sl (read var6 var1)) (not (is-O_sl_item (read var6 (head (getsl (read var6 var1)))))))))))
(assert (forall ((var0 Addr) (var1 Addr) (var2 Addr) (var3 Addr) (var4 Addr) (var5 Addr) (var6 Addr) (var7 Heap)) (not (and (inv_main96 var7 var6 var5 var4 var3 var2 var1 var0) (not (is-O_sl (read var7 var2)))))))
(check-sat)
